(set-logic QF_S)
(declare-fun var0 () String)
(assert (str.in.re var0 (re.++ (re.union (re.* (str.to.re "000")) (re.* (str.to.re "11"))) (re.++ (re.* (re.* (str.to.re "22"))) (re.++ (re.union (re.* (str.to.re "3")) (re.* (str.to.re "444"))) (re.++ (re.union (re.* (str.to.re "555")) (re.* (str.to.re "666"))) (re.++ (re.union (re.+ (str.to.re "777")) (re.+ (str.to.re "88"))) (re.++ (re.+ (re.* (str.to.re "99"))) (re.++ (re.union (re.+ (str.to.re "aa")) (re.+ (str.to.re "bbb"))) (re.++ (re.* (re.* (str.to.re "ccc"))) (re.++ (re.* (re.union (str.to.re "dd") (str.to.re "e"))) (re.++ (re.+ (re.union (str.to.re "f") (str.to.re "g"))) (re.++ (re.+ (re.+ (str.to.re "hh"))) (re.++ (re.union (re.+ (str.to.re "ii")) (re.+ (str.to.re "jj"))) (re.++ (re.union (re.union (str.to.re "kk") (str.to.re "l")) (re.union (str.to.re "m") (str.to.re "nnn"))) (re.++ (re.* (re.* (str.to.re "oo"))) (re.++ (re.* (re.union (str.to.re "ppp") (str.to.re "qq"))) (re.++ (re.union (re.+ (str.to.re "rrr")) (re.+ (str.to.re "sss"))) (re.++ (re.+ (re.+ (str.to.re "t"))) (re.++ (re.+ (re.union (str.to.re "uuu") (str.to.re "vvv"))) (re.++ (re.* (re.* (str.to.re "ww"))) (re.++ (re.union (re.union (str.to.re "xxx") (str.to.re "yyy")) (re.union (str.to.re "zzz") (str.to.re "A"))) (re.+ (re.+ (str.to.re "BB")))))))))))))))))))))))))
(check-sat)